p cnf 505 1438
e 1 2 3 4 5 6 7 8 9 10 11 12 13 14 15 16 17 19 20 21 22 23 24 25 26 27 28 29 30 31 32 33 34 35 36 37 38 42 43 44 45 46 47 48 49 50 51 52 53 54 55 56 57 58 59 60 61 62 0
a 18 39 40 41 0
e 63 64 65 66 67 68 69 70 71 72 73 74 75 76 77 78 79 80 81 82 83 84 85 86 87 88 89 90 91 92 93 94 95 96 97 98 99 100 101 102 103 104 105 106 107 108 109 110 111 112 113 114 115 116 117 118 119 120 121 122 123 124 125 126 127 128 129 130 131 132 133 134 135 136 137 138 139 140 141 142 143 144 145 146 147 148 149 150 151 152 153 154 155 156 157 158 159 160 161 162 163 164 165 166 167 168 169 170 171 172 173 174 175 176 177 178 179 180 181 182 183 184 185 186 187 188 189 190 191 192 193 194 195 196 197 198 199 200 201 202 203 204 205 206 207 208 209 210 211 212 213 214 215 216 217 218 219 220 221 222 223 224 225 226 227 228 229 230 231 232 233 234 235 236 237 238 239 240 241 242 243 244 245 246 247 248 249 250 251 252 253 254 255 256 257 258 259 260 261 262 263 264 265 266 267 268 269 270 271 272 273 274 275 276 277 278 279 280 281 282 283 284 285 286 287 288 289 290 291 292 293 294 295 296 297 298 299 300 301 302 303 304 305 306 307 308 309 310 311 312 313 314 315 316 317 318 319 320 321 322 323 324 325 326 327 328 329 330 331 332 333 334 335 336 337 338 339 340 341 342 343 344 345 346 347 348 349 350 351 352 353 354 355 356 357 358 359 360 361 362 363 364 365 366 367 368 369 370 371 372 373 374 375 376 377 378 379 380 381 382 383 384 385 386 387 388 389 390 391 392 393 394 395 396 397 398 399 400 401 402 403 404 405 406 407 408 409 410 411 412 413 414 415 416 417 418 419 420 421 422 423 424 425 426 427 428 429 430 431 432 433 434 435 436 437 438 439 440 441 442 443 444 445 446 447 448 449 450 451 452 453 454 455 456 457 458 459 460 461 462 463 464 465 466 467 468 469 470 471 472 473 474 475 476 477 478 479 480 481 482 483 484 485 486 487 488 489 490 491 492 493 494 495 496 497 498 499 500 501 502 503 504 505 0
-505 0
-504 -489 -460 -411 505 0
504 -503 0
504 -410 0
504 -4 0
504 -3 0
504 -1 0
-502 -496 503 0
502 -501 0
502 -486 0
502 -449 0
502 -370 0
502 -41 0
502 -40 0
502 -39 0
502 -18 0
-256 -255 -254 -253 -500 501 0
500 -497 0
500 -498 0
500 -499 0
30 33 35 36 34 53 49 -270 -269 -281 -280 499 0
25 24 21 27 26 52 46 -278 -277 -264 -263 498 0
17 16 15 14 11 51 43 -260 -275 -274 -258 497 0
496 -495 0
496 -235 0
-196 -425 -472 -494 495 0
494 -493 0
494 -79 0
494 -80 0
494 -81 0
494 -82 0
-492 -491 -490 493 0
492 -106 0
492 -107 0
492 -95 0
492 -96 0
492 -53 0
492 -49 0
492 -36 0
492 -35 0
492 -34 0
492 -33 0
492 -30 0
491 -89 0
491 -90 0
491 -103 0
491 -104 0
491 -52 0
491 -46 0
491 -27 0
491 -26 0
491 -25 0
491 -24 0
491 -21 0
490 -84 0
490 -100 0
490 -101 0
490 -86 0
490 -51 0
490 -43 0
490 -17 0
490 -16 0
490 -15 0
490 -14 0
490 -11 0
489 -488 0
489 -410 0
489 -4 0
489 -2 0
489 -1 0
-487 -474 488 0
487 -479 0
487 -486 0
487 -457 0
487 -389 0
487 -41 0
487 -40 0
487 -39 0
487 -18 0
-485 -482 486 0
485 -483 0
485 -484 0
485 -377 0
485 -378 0
485 -379 0
-256 -255 -254 -253 -321 -385 484 0
-256 -255 -254 -253 -283 -451 483 0
482 -480 0
482 -481 0
482 -357 0
482 -358 0
482 -359 0
-256 -255 -254 -253 -304 -442 481 0
-256 -255 -254 -253 -331 -351 480 0
-256 -255 -254 -253 -478 479 0
478 -475 0
478 -476 0
478 -477 0
30 33 35 36 34 53 49 -302 -301 -292 -291 477 0
25 24 21 27 26 52 46 -299 -298 -289 -288 476 0
17 16 15 14 11 51 43 -296 -295 -286 -285 475 0
474 -473 0
474 -235 0
-215 -433 -472 -465 473 0
472 -468 0
472 -471 0
-205 -204 -203 -470 -469 471 0
470 -211 0
470 -147 0
470 -79 0
470 -80 0
470 -81 0
470 -82 0
469 -427 0
469 -109 0
469 -79 0
469 -80 0
469 -81 0
469 -82 0
-185 -184 -183 -467 -466 468 0
467 -418 0
467 -130 0
467 -79 0
467 -80 0
467 -81 0
467 -82 0
466 -177 0
466 -157 0
466 -79 0
466 -80 0
466 -81 0
466 -82 0
465 -464 0
465 -79 0
465 -80 0
465 -81 0
465 -82 0
-463 -462 -461 464 0
463 -117 0
463 -118 0
463 -127 0
463 -128 0
463 -53 0
463 -49 0
463 -36 0
463 -35 0
463 -34 0
463 -33 0
463 -30 0
462 -114 0
462 -115 0
462 -124 0
462 -125 0
462 -52 0
462 -46 0
462 -27 0
462 -26 0
462 -25 0
462 -24 0
462 -21 0
461 -111 0
461 -112 0
461 -121 0
461 -122 0
461 -51 0
461 -43 0
461 -17 0
461 -16 0
461 -15 0
461 -14 0
461 -11 0
460 -459 0
460 -410 0
460 -3 0
460 -2 0
460 -1 0
-458 -435 459 0
458 -440 0
458 -449 0
458 -457 0
458 -407 0
458 -41 0
458 -40 0
458 -39 0
458 -18 0
-456 -453 457 0
456 -454 0
456 -455 0
456 -393 0
456 -394 0
456 -395 0
-256 -255 -254 -253 -446 -304 455 0
-256 -255 -254 -253 -401 -326 454 0
453 -450 0
453 -452 0
453 -382 0
453 -383 0
453 -384 0
-256 -255 -254 -253 -309 -451 452 0
451 -375 0
451 -376 0
451 -387 0
-256 -255 -254 -253 -273 -380 450 0
-448 -444 449 0
448 -445 0
448 -447 0
448 -398 0
448 -399 0
448 -400 0
-256 -255 -254 -253 -446 -283 447 0
446 -403 0
446 -404 0
446 -405 0
-256 -255 -254 -253 -338 -396 445 0
444 -441 0
444 -443 0
444 -348 0
444 -349 0
444 -350 0
-256 -255 -254 -253 -309 -442 443 0
442 -366 0
442 -367 0
442 -368 0
-256 -255 -254 -253 -294 -360 441 0
-256 -255 -254 -253 -439 440 0
439 -436 0
439 -437 0
439 -438 0
32 31 30 33 35 36 34 -271 -319 -318 -268 438 0
25 24 23 22 21 27 26 -266 -265 -316 -315 437 0
13 17 16 15 14 12 11 -261 -313 -259 -312 436 0
435 -434 0
435 -235 0
-233 -433 -425 -416 434 0
433 -429 0
433 -432 0
-221 -220 -219 -431 -430 432 0
431 -130 0
431 -422 0
431 -79 0
431 -80 0
431 -81 0
431 -82 0
430 -152 0
430 -227 0
430 -79 0
430 -80 0
430 -81 0
430 -82 0
-210 -209 -208 -428 -426 429 0
428 -427 0
428 -135 0
428 -79 0
428 -80 0
428 -81 0
428 -82 0
-213 -202 -201 427 0
426 -206 0
426 -99 0
426 -79 0
426 -80 0
426 -81 0
426 -82 0
425 -420 0
425 -424 0
-226 -225 -224 -423 -421 424 0
423 -109 0
423 -422 0
423 -79 0
423 -80 0
423 -81 0
423 -82 0
-231 -230 -229 422 0
421 -222 0
421 -164 0
421 -79 0
421 -80 0
421 -81 0
421 -82 0
-176 -175 -174 -419 -417 420 0
419 -418 0
419 -135 0
419 -79 0
419 -80 0
419 -81 0
419 -82 0
-194 -193 -192 418 0
417 -186 0
417 -120 0
417 -79 0
417 -80 0
417 -81 0
417 -82 0
416 -415 0
416 -79 0
416 -80 0
416 -81 0
416 -82 0
-414 -413 -412 415 0
414 -94 0
414 -144 0
414 -145 0
414 -97 0
414 -36 0
414 -35 0
414 -34 0
414 -33 0
414 -32 0
414 -31 0
414 -30 0
413 -141 0
413 -142 0
413 -91 0
413 -92 0
413 -27 0
413 -26 0
413 -25 0
413 -24 0
413 -23 0
413 -22 0
413 -21 0
412 -138 0
412 -85 0
412 -139 0
412 -87 0
412 -17 0
412 -16 0
412 -15 0
412 -14 0
412 -13 0
412 -12 0
412 -11 0
411 -409 0
411 -410 0
411 -4 0
411 -3 0
411 -2 0
4 3 2 1 410 0
-408 -236 409 0
408 -257 0
408 -370 0
408 -389 0
408 -407 0
408 -41 0
408 -40 0
408 -39 0
408 -18 0
-406 -392 407 0
406 -397 0
406 -402 0
406 -403 0
406 -404 0
406 -405 0
-256 -255 -254 -253 -355 405 0
-256 -255 -254 -253 -331 -364 404 0
-256 -255 -254 -253 -347 -321 403 0
-256 -255 -254 -253 -347 -401 402 0
401 -398 0
401 -399 0
401 -400 0
-256 -255 -254 -253 -321 400 0
-256 -255 -254 -253 -355 -283 399 0
-256 -255 -254 -253 -331 -338 398 0
-256 -255 -254 -253 -364 -396 397 0
396 -393 0
396 -394 0
396 -395 0
-256 -255 -254 -253 -331 395 0
-256 -255 -254 -253 -321 -326 394 0
-256 -255 -254 -253 -355 -304 393 0
392 -284 0
392 -305 0
392 -390 0
392 -391 0
392 -310 0
-256 -255 -254 -253 -334 -294 391 0
-256 -255 -254 -253 -372 -273 390 0
-388 -374 389 0
388 -375 0
388 -376 0
388 -381 0
388 -386 0
388 -387 0
-256 -255 -254 -253 -364 387 0
-256 -255 -254 -253 -355 -385 386 0
385 -382 0
385 -383 0
385 -384 0
-256 -255 -254 -253 -294 384 0
-256 -255 -254 -253 -364 -309 383 0
-256 -255 -254 -253 -338 -273 382 0
-256 -255 -254 -253 -347 -380 381 0
380 -377 0
380 -378 0
380 -379 0
-256 -255 -254 -253 -338 379 0
-256 -255 -254 -253 -321 -294 378 0
-256 -255 -254 -253 -364 -283 377 0
-256 -255 -254 -253 -355 -294 376 0
-256 -255 -254 -253 -347 -338 375 0
374 -371 0
374 -373 0
374 -327 0
374 -332 0
374 -333 0
-256 -255 -254 -253 -326 -372 373 0
372 -340 0
372 -341 0
372 -342 0
-256 -255 -254 -253 -331 -311 371 0
-369 -343 370 0
369 -356 0
369 -365 0
369 -366 0
369 -367 0
369 -368 0
-256 -255 -254 -253 -347 368 0
-256 -255 -254 -253 -355 -273 367 0
-256 -255 -254 -253 -364 -326 366 0
-256 -255 -254 -253 -364 -360 365 0
364 -361 0
364 -362 0
364 -363 0
35 36 34 53 49 48 62 -250 -249 -292 -291 363 0
25 27 26 61 52 46 45 -245 -244 -289 -288 362 0
17 16 15 51 43 60 42 -240 -239 -286 -285 361 0
360 -357 0
360 -358 0
360 -359 0
-256 -255 -254 -253 -326 359 0
-256 -255 -254 -253 -331 -273 358 0
-256 -255 -254 -253 -347 -304 357 0
-256 -255 -254 -253 -355 -351 356 0
355 -352 0
355 -353 0
355 -354 0
32 35 36 34 53 48 62 -250 -249 -319 -318 354 0
25 23 27 26 61 52 45 -245 -244 -316 -315 353 0
13 17 16 15 51 60 42 -240 -239 -313 -312 352 0
351 -348 0
351 -349 0
351 -350 0
-256 -255 -254 -253 -273 350 0
-256 -255 -254 -253 -326 -294 349 0
-256 -255 -254 -253 -347 -309 348 0
347 -344 0
347 -345 0
347 -346 0
35 34 53 56 49 48 62 -250 -249 -270 -269 346 0
25 26 55 61 52 46 45 -245 -244 -264 -263 345 0
16 15 54 51 43 60 42 -240 -239 -260 -258 344 0
343 -322 0
343 -339 0
343 -340 0
343 -341 0
343 -342 0
-256 -255 -254 -253 -283 342 0
-256 -255 -254 -253 -321 -309 341 0
-256 -255 -254 -253 -338 -304 340 0
-256 -255 -254 -253 -338 -334 339 0
338 -335 0
338 -336 0
338 -337 0
33 35 34 53 56 49 48 -292 -291 -281 -280 337 0
25 24 26 55 52 46 45 -278 -277 -289 -288 336 0
16 15 14 54 51 43 42 -275 -274 -286 -285 335 0
334 -327 0
334 -332 0
334 -333 0
-256 -255 -254 -253 -304 333 0
-256 -255 -254 -253 -331 -309 332 0
331 -328 0
331 -329 0
331 -330 0
32 33 35 34 53 56 48 -319 -318 -302 -301 330 0
25 24 23 26 55 52 45 -299 -298 -316 -315 329 0
13 16 15 14 54 51 42 -313 -296 -295 -312 328 0
-256 -255 -254 -253 -283 -326 327 0
326 -323 0
326 -324 0
326 -325 0
33 36 34 53 50 49 48 -302 -301 -270 -269 325 0
25 24 27 52 46 45 47 -299 -298 -264 -263 324 0
17 15 14 51 43 44 42 -260 -296 -295 -258 323 0
-256 -255 -254 -253 -321 -311 322 0
321 -314 0
321 -317 0
321 -320 0
32 33 35 36 34 53 48 -319 -318 -281 -280 320 0
319 38 0
319 18 0
318 37 0
318 -18 0
25 24 23 27 26 52 45 -278 -277 -316 -315 317 0
316 29 0
316 18 0
315 28 0
315 -18 0
13 17 16 15 14 51 42 -313 -275 -274 -312 314 0
313 19 0
313 -18 0
312 18 0
312 20 0
311 -284 0
311 -305 0
311 -310 0
-256 -255 -254 -253 -309 310 0
309 -306 0
309 -307 0
309 -308 0
31 33 35 36 49 48 59 -271 -248 -247 -268 308 0
24 22 27 26 46 45 58 -266 -265 -243 -242 307 0
17 16 14 12 43 57 42 -261 -259 -238 -237 306 0
-256 -255 -254 -253 -304 -294 305 0
304 -297 0
304 -300 0
304 -303 0
33 35 36 53 49 48 59 -302 -301 -248 -247 303 0
302 39 0
302 10 0
301 7 0
301 -39 0
24 27 26 52 46 45 58 -299 -298 -243 -242 300 0
299 6 0
299 -39 0
298 39 0
298 8 0
17 16 14 51 43 57 42 -296 -295 -238 -237 297 0
296 39 0
296 9 0
295 5 0
295 -39 0
294 -287 0
294 -290 0
294 -293 0
31 33 36 34 50 49 48 -271 -292 -291 -268 293 0
292 38 0
292 39 0
291 37 0
291 -39 0
25 24 22 27 46 45 47 -266 -265 -289 -288 290 0
289 39 0
289 29 0
288 28 0
288 -39 0
17 15 14 12 43 44 42 -261 -259 -286 -285 287 0
286 39 0
286 20 0
285 19 0
285 -39 0
-256 -255 -254 -253 -283 -273 284 0
283 -276 0
283 -279 0
283 -282 0
33 36 53 50 49 48 59 -281 -280 -248 -247 282 0
281 40 0
281 10 0
280 -40 0
280 7 0
24 27 52 46 45 58 47 -278 -277 -243 -242 279 0
278 -40 0
278 6 0
277 40 0
277 8 0
17 14 51 43 57 44 42 -275 -274 -238 -237 276 0
275 40 0
275 9 0
274 -40 0
274 5 0
273 -262 0
273 -267 0
273 -272 0
31 33 35 36 34 49 48 -271 -270 -269 -268 272 0
271 10 0
271 18 0
270 40 0
270 38 0
269 -40 0
269 37 0
268 7 0
268 -18 0
25 24 22 27 26 46 45 -266 -265 -264 -263 267 0
266 6 0
266 -18 0
265 8 0
265 18 0
264 40 0
264 29 0
263 -40 0
263 28 0
17 16 15 14 12 43 42 -261 -260 -259 -258 262 0
261 18 0
261 9 0
260 40 0
260 20 0
259 5 0
259 -18 0
258 -40 0
258 19 0
-256 -255 -254 -253 -252 257 0
256 6 0
256 -5 0
255 9 0
255 -8 0
254 7 0
254 -6 0
253 8 0
253 -10 0
252 -241 0
252 -246 0
252 -251 0
30 35 36 53 49 62 59 -250 -249 -248 -247 251 0
250 41 0
250 10 0
249 -41 0
249 7 0
248 41 0
248 38 0
247 -41 0
247 37 0
21 27 26 61 52 46 58 -245 -244 -243 -242 246 0
245 -41 0
245 6 0
244 41 0
244 8 0
243 41 0
243 29 0
242 -41 0
242 28 0
17 16 11 51 43 60 57 -240 -239 -238 -237 241 0
240 41 0
240 9 0
239 -41 0
239 5 0
238 41 0
238 20 0
237 -41 0
237 19 0
236 -234 0
236 -235 0
18 39 40 41 235 0
-233 -215 -196 -83 234 0
233 -218 0
233 -232 0
-231 -230 -229 -228 -223 232 0
231 -181 0
231 -79 0
231 -80 0
231 -81 0
231 -82 0
230 -190 0
230 -157 0
230 -79 0
230 -80 0
230 -81 0
230 -82 0
229 -147 0
229 -173 0
229 -79 0
229 -80 0
229 -81 0
229 -82 0
228 -227 0
228 -173 0
228 -79 0
228 -80 0
228 -81 0
228 -82 0
-226 -225 -224 227 0
226 -147 0
226 -79 0
226 -80 0
226 -81 0
226 -82 0
225 -109 0
225 -181 0
225 -79 0
225 -80 0
225 -81 0
225 -82 0
224 -164 0
224 -157 0
224 -79 0
224 -80 0
224 -81 0
224 -82 0
223 -222 0
223 -190 0
223 -79 0
223 -80 0
223 -81 0
223 -82 0
-221 -220 -219 222 0
221 -157 0
221 -79 0
221 -80 0
221 -81 0
221 -82 0
220 -152 0
220 -147 0
220 -79 0
220 -80 0
220 -81 0
220 -82 0
219 -130 0
219 -181 0
219 -79 0
219 -80 0
219 -81 0
219 -82 0
-136 -217 -216 -131 -110 218 0
217 -120 0
217 -160 0
217 -79 0
217 -80 0
217 -81 0
217 -82 0
216 -99 0
216 -198 0
216 -79 0
216 -80 0
216 -81 0
216 -82 0
215 -200 0
215 -214 0
-213 -212 -207 -202 -201 214 0
213 -190 0
213 -79 0
213 -80 0
213 -81 0
213 -82 0
212 -211 0
212 -181 0
212 -79 0
212 -80 0
212 -81 0
212 -82 0
-210 -209 -208 211 0
210 -120 0
210 -79 0
210 -80 0
210 -81 0
210 -82 0
209 -135 0
209 -190 0
209 -79 0
209 -80 0
209 -81 0
209 -82 0
208 -99 0
208 -164 0
208 -79 0
208 -80 0
208 -81 0
208 -82 0
207 -206 0
207 -173 0
207 -79 0
207 -80 0
207 -81 0
207 -82 0
-205 -204 -203 206 0
205 -164 0
205 -79 0
205 -80 0
205 -81 0
205 -82 0
204 -120 0
204 -147 0
204 -79 0
204 -80 0
204 -81 0
204 -82 0
203 -109 0
203 -190 0
203 -79 0
203 -80 0
203 -81 0
203 -82 0
202 -120 0
202 -181 0
202 -79 0
202 -80 0
202 -81 0
202 -82 0
201 -164 0
201 -173 0
201 -79 0
201 -80 0
201 -81 0
201 -82 0
-159 -158 -153 -199 -197 200 0
199 -198 0
199 -152 0
199 -79 0
199 -80 0
199 -81 0
199 -82 0
-168 -167 -166 198 0
197 -137 0
197 -157 0
197 -79 0
197 -80 0
197 -81 0
197 -82 0
196 -169 0
196 -195 0
-194 -193 -192 -191 -182 195 0
194 -173 0
194 -79 0
194 -80 0
194 -81 0
194 -82 0
193 -99 0
193 -181 0
193 -79 0
193 -80 0
193 -81 0
193 -82 0
192 -152 0
192 -190 0
192 -79 0
192 -80 0
192 -81 0
192 -82 0
191 -186 0
191 -190 0
191 -79 0
191 -80 0
191 -81 0
191 -82 0
-189 -188 -187 190 0
189 -117 0
189 -118 0
189 -75 0
189 -76 0
189 -62 0
189 -53 0
189 -49 0
189 -48 0
189 -36 0
189 -35 0
189 -34 0
188 -114 0
188 -115 0
188 -70 0
188 -71 0
188 -61 0
188 -52 0
188 -46 0
188 -45 0
188 -27 0
188 -26 0
188 -25 0
187 -111 0
187 -112 0
187 -65 0
187 -66 0
187 -60 0
187 -51 0
187 -43 0
187 -42 0
187 -17 0
187 -16 0
187 -15 0
-185 -184 -183 186 0
185 -152 0
185 -79 0
185 -80 0
185 -81 0
185 -82 0
184 -99 0
184 -157 0
184 -79 0
184 -80 0
184 -81 0
184 -82 0
183 -130 0
183 -173 0
183 -79 0
183 -80 0
183 -81 0
183 -82 0
182 -177 0
182 -181 0
182 -79 0
182 -80 0
182 -81 0
182 -82 0
-180 -179 -178 181 0
180 -144 0
180 -145 0
180 -75 0
180 -76 0
180 -62 0
180 -53 0
180 -48 0
180 -36 0
180 -35 0
180 -34 0
180 -32 0
179 -141 0
179 -142 0
179 -70 0
179 -71 0
179 -61 0
179 -52 0
179 -45 0
179 -27 0
179 -26 0
179 -25 0
179 -23 0
178 -138 0
178 -139 0
178 -65 0
178 -66 0
178 -60 0
178 -51 0
178 -42 0
178 -17 0
178 -16 0
178 -15 0
178 -13 0
-176 -175 -174 177 0
176 -99 0
176 -79 0
176 -80 0
176 -81 0
176 -82 0
175 -120 0
175 -152 0
175 -79 0
175 -80 0
175 -81 0
175 -82 0
174 -135 0
174 -173 0
174 -79 0
174 -80 0
174 -81 0
174 -82 0
-172 -171 -170 173 0
172 -95 0
172 -96 0
172 -75 0
172 -76 0
172 -62 0
172 -56 0
172 -53 0
172 -49 0
172 -48 0
172 -35 0
172 -34 0
171 -89 0
171 -90 0
171 -70 0
171 -71 0
171 -61 0
171 -55 0
171 -52 0
171 -46 0
171 -45 0
171 -26 0
171 -25 0
170 -84 0
170 -86 0
170 -65 0
170 -66 0
170 -60 0
170 -54 0
170 -51 0
170 -43 0
170 -42 0
170 -16 0
170 -15 0
-168 -167 -166 -165 -148 169 0
168 -109 0
168 -79 0
168 -80 0
168 -81 0
168 -82 0
167 -135 0
167 -147 0
167 -79 0
167 -80 0
167 -81 0
167 -82 0
166 -130 0
166 -164 0
166 -79 0
166 -80 0
166 -81 0
166 -82 0
165 -160 0
165 -164 0
165 -79 0
165 -80 0
165 -81 0
165 -82 0
-163 -162 -161 164 0
163 -106 0
163 -107 0
163 -117 0
163 -118 0
163 -56 0
163 -53 0
163 -49 0
163 -48 0
163 -35 0
163 -34 0
163 -33 0
162 -114 0
162 -115 0
162 -103 0
162 -104 0
162 -55 0
162 -52 0
162 -46 0
162 -45 0
162 -26 0
162 -25 0
162 -24 0
161 -111 0
161 -112 0
161 -100 0
161 -101 0
161 -54 0
161 -51 0
161 -43 0
161 -42 0
161 -16 0
161 -15 0
161 -14 0
-159 -158 -153 160 0
159 -130 0
159 -79 0
159 -80 0
159 -81 0
159 -82 0
158 -135 0
158 -157 0
158 -79 0
158 -80 0
158 -81 0
158 -82 0
-156 -155 -154 157 0
156 -127 0
156 -128 0
156 -144 0
156 -145 0
156 -56 0
156 -53 0
156 -48 0
156 -35 0
156 -34 0
156 -33 0
156 -32 0
155 -141 0
155 -142 0
155 -124 0
155 -125 0
155 -55 0
155 -52 0
155 -45 0
155 -26 0
155 -25 0
155 -24 0
155 -23 0
154 -138 0
154 -121 0
154 -122 0
154 -139 0
154 -54 0
154 -51 0
154 -42 0
154 -16 0
154 -15 0
154 -14 0
154 -13 0
153 -152 0
153 -109 0
153 -79 0
153 -80 0
153 -81 0
153 -82 0
-151 -150 -149 152 0
151 -95 0
151 -96 0
151 -127 0
151 -128 0
151 -53 0
151 -50 0
151 -49 0
151 -48 0
151 -36 0
151 -34 0
151 -33 0
150 -89 0
150 -90 0
150 -124 0
150 -125 0
150 -52 0
150 -47 0
150 -46 0
150 -45 0
150 -27 0
150 -25 0
150 -24 0
149 -84 0
149 -121 0
149 -122 0
149 -86 0
149 -51 0
149 -44 0
149 -43 0
149 -42 0
149 -17 0
149 -15 0
149 -14 0
148 -137 0
148 -147 0
148 -79 0
148 -80 0
148 -81 0
148 -82 0
-146 -143 -140 147 0
146 -106 0
146 -107 0
146 -144 0
146 -145 0
146 -53 0
146 -48 0
146 -36 0
146 -35 0
146 -34 0
146 -33 0
146 -32 0
-18 -38 145 0
-37 18 144 0
143 -141 0
143 -142 0
143 -103 0
143 -104 0
143 -52 0
143 -45 0
143 -27 0
143 -26 0
143 -25 0
143 -24 0
143 -23 0
-18 -29 142 0
-28 18 141 0
140 -138 0
140 -100 0
140 -101 0
140 -139 0
140 -51 0
140 -42 0
140 -17 0
140 -16 0
140 -15 0
140 -14 0
140 -13 0
-19 18 139 0
-18 -20 138 0
-136 -131 -110 137 0
136 -135 0
136 -79 0
136 -80 0
136 -81 0
136 -82 0
-134 -133 -132 135 0
134 -94 0
134 -73 0
134 -74 0
134 -97 0
134 -59 0
134 -49 0
134 -48 0
134 -36 0
134 -35 0
134 -33 0
134 -31 0
133 -68 0
133 -69 0
133 -91 0
133 -92 0
133 -58 0
133 -46 0
133 -45 0
133 -27 0
133 -26 0
133 -24 0
133 -22 0
132 -63 0
132 -64 0
132 -85 0
132 -87 0
132 -57 0
132 -43 0
132 -42 0
132 -17 0
132 -16 0
132 -14 0
132 -12 0
131 -120 0
131 -130 0
131 -79 0
131 -80 0
131 -81 0
131 -82 0
-129 -126 -123 130 0
129 -73 0
129 -74 0
129 -127 0
129 -128 0
129 -59 0
129 -53 0
129 -49 0
129 -48 0
129 -36 0
129 -35 0
129 -33 0
-10 -39 128 0
-7 39 127 0
126 -68 0
126 -69 0
126 -124 0
126 -125 0
126 -58 0
126 -52 0
126 -46 0
126 -45 0
126 -27 0
126 -26 0
126 -24 0
-6 39 125 0
-8 -39 124 0
123 -63 0
123 -64 0
123 -121 0
123 -122 0
123 -57 0
123 -51 0
123 -43 0
123 -42 0
123 -17 0
123 -16 0
123 -14 0
-9 -39 122 0
-5 39 121 0
-119 -116 -113 120 0
119 -94 0
119 -117 0
119 -118 0
119 -97 0
119 -50 0
119 -49 0
119 -48 0
119 -36 0
119 -34 0
119 -33 0
119 -31 0
-38 -39 118 0
-37 39 117 0
116 -114 0
116 -115 0
116 -91 0
116 -92 0
116 -47 0
116 -46 0
116 -45 0
116 -27 0
116 -25 0
116 -24 0
116 -22 0
-29 -39 115 0
-28 39 114 0
113 -111 0
113 -112 0
113 -85 0
113 -87 0
113 -44 0
113 -43 0
113 -42 0
113 -17 0
113 -15 0
113 -14 0
113 -12 0
-20 -39 112 0
-19 39 111 0
110 -99 0
110 -109 0
110 -79 0
110 -80 0
110 -81 0
110 -82 0
-108 -105 -102 109 0
108 -73 0
108 -74 0
108 -106 0
108 -107 0
108 -59 0
108 -53 0
108 -50 0
108 -49 0
108 -48 0
108 -36 0
108 -33 0
-10 -40 107 0
-7 40 106 0
105 -68 0
105 -69 0
105 -103 0
105 -104 0
105 -58 0
105 -52 0
105 -47 0
105 -46 0
105 -45 0
105 -27 0
105 -24 0
-6 40 104 0
-8 -40 103 0
102 -63 0
102 -64 0
102 -100 0
102 -101 0
102 -57 0
102 -51 0
102 -44 0
102 -43 0
102 -42 0
102 -17 0
102 -14 0
-9 -40 101 0
-5 40 100 0
-98 -93 -88 99 0
98 -94 0
98 -95 0
98 -96 0
98 -97 0
98 -49 0
98 -48 0
98 -36 0
98 -35 0
98 -34 0
98 -33 0
98 -31 0
-10 -18 97 0
-38 -40 96 0
-37 40 95 0
-7 18 94 0
93 -89 0
93 -90 0
93 -91 0
93 -92 0
93 -46 0
93 -45 0
93 -27 0
93 -26 0
93 -25 0
93 -24 0
93 -22 0
-6 18 92 0
-8 -18 91 0
-29 -40 90 0
-28 40 89 0
88 -84 0
88 -85 0
88 -86 0
88 -87 0
88 -43 0
88 -42 0
88 -17 0
88 -16 0
88 -15 0
88 -14 0
88 -12 0
-9 -18 87 0
-20 -40 86 0
-5 18 85 0
-19 40 84 0
83 -78 0
83 -79 0
83 -80 0
83 -81 0
83 -82 0
-6 5 82 0
-9 8 81 0
-7 6 80 0
-8 10 79 0
-77 -72 -67 78 0
77 -73 0
77 -74 0
77 -75 0
77 -76 0
77 -62 0
77 -59 0
77 -53 0
77 -49 0
77 -36 0
77 -35 0
77 -30 0
-10 -41 76 0
-7 41 75 0
-38 -41 74 0
-37 41 73 0
72 -68 0
72 -69 0
72 -70 0
72 -71 0
72 -61 0
72 -58 0
72 -52 0
72 -46 0
72 -27 0
72 -26 0
72 -21 0
-8 -41 71 0
-6 41 70 0
-29 -41 69 0
-28 41 68 0
67 -63 0
67 -64 0
67 -65 0
67 -66 0
67 -60 0
67 -57 0
67 -51 0
67 -43 0
67 -17 0
67 -16 0
67 -11 0
-5 41 66 0
-9 -41 65 0
-20 -41 64 0
-19 41 63 0
